\ENCODING=ISO-8859-1
\Problem name: ilog.cplex

Minimize
 obj1: 108376 x1 + 93705 x2 + 102464 x3 + 98570 x4 + 103867 x5 + 101110 x6
       + 101493 x7 + 96984 x8 + 90077 x9 + 109907 x10 + 99383 x11 + 93771 x12
       + 90076 x13 + 100890 x14 + 92734 x15 + 103515 x16 + 95877 x17
       + 101625 x18 + 92837 x19 + 104984 x20 + 97946 x21 + 103129 x22
       + 92488 x23 + 98027 x24 + 107858 x25 + 102849 x26 + 105656 x27
       + 91885 x28 + 105402 x29 + 104082 x30 + 103937 x31 + 101780 x32
       + 105604 x33 + 100539 x34 + 98133 x35 + 102048 x36 + 90763 x37
       + 104043 x38 + 93290 x39 + 96126 x40 + 107993 x41 + 93186 x42
       + 101189 x43 + 96414 x44 + 93669 x45 + 91263 x46 + 105542 x47
       + 100293 x48 + 92804 x49 + 102929 x50 + 102068 x51 + 102538 x52
       + 93544 x53 + 90731 x54 + 98093 x55 + 98889 x56 + 94842 x57 + 95076 x58
       + 94511 x59 + 90742 x60 + 96705 x61 + 108279 x62 + 103839 x63
       + 90340 x64 + 93210 x65 + 105010 x66 + 92332 x67 + 103197 x68
       + 103387 x69 + 103923 x70 + 108123 x71 + 94440 x72 + 91134 x73
       + 105179 x74 + 96664 x75 + 109474 x76 + 95562 x77 + 97111 x78
       + 106193 x79 + 90066 x80 + 99967 x81 + 100435 x82 + 100428 x83
       + 97099 x84 + 108997 x85 + 106928 x86 + 103042 x87 + 106434 x88
       + 107880 x89 + 104223 x90 + 96858 x91 + 107112 x92 + 98366 x93
       + 92466 x94 + 109305 x95 + 105556 x96 + 107480 x97 + 98282 x98
       + 94918 x99 + 109397 x100 + 107200 x101 + 96813 x102 + 95523 x103
       + 90268 x104 + 105892 x105 + 103581 x106 + 99249 x107 + 106098 x108
       + 95605 x109 + 94479 x110 + 90604 x111 + 100401 x112 + 103258 x113
       + 94416 x114 + 105603 x115 + 108534 x116 + 98324 x117 + 102973 x118
       + 98304 x119 + 109051 x120 + 102066 x121 + 90720 x122 + 104212 x123
       + 90551 x124 + 95903 x125 + 96177 x126 + 93900 x127 + 99474 x128
       + 98364 x129 + 105252 x130 + 106491 x131 + 101447 x132 + 99558 x133
       + 98218 x134 + 108054 x135 + 91167 x136 + 99533 x137 + 106040 x138
       + 102694 x139 + 90771 x140 + 95821 x141 + 99455 x142 + 90361 x143
       + 103698 x144 + 103549 x145 + 94074 x146 + 105465 x147 + 90813 x148
       + 93897 x149 + 93174 x150 + 108257 x151 + 104543 x152 + 105457 x153
       + 100662 x154 + 105037 x155 + 95373 x156 + 107454 x157 + 108091 x158
       + 102945 x159 + 94308 x160 + 93784 x161 + 91693 x162 + 100415 x163
       + 94741 x164 + 102503 x165 + 108044 x166 + 95348 x167 + 107698 x168
       + 106626 x169 + 90282 x170 + 99632 x171 + 105492 x172 + 109047 x173
       + 100743 x174 + 100837 x175 + 100603 x176 + 96849 x177 + 90391 x178
       + 109764 x179 + 108935 x180 + 99603 x181 + 100874 x182 + 98988 x183
       + 102421 x184 + 97017 x185 + 93531 x186 + 96070 x187 + 105372 x188
       + 95245 x189 + 90487 x190 + 109338 x191 + 105406 x192 + 109547 x193
       + 103152 x194 + 95531 x195 + 102147 x196 + 105403 x197 + 92127 x198
       + 92995 x199 + 96250 x200 + 91530 x201 + 98580 x202 + 93526 x203
       + 99715 x204 + 100058 x205 + 103116 x206 + 103065 x207 + 98338 x208
       + 104470 x209 + 93238 x210 + 100708 x211 + 98593 x212 + 103822 x213
       + 99272 x214 + 106344 x215 + 105296 x216 + 90449 x217 + 93009 x218
       + 108600 x219 + 96123 x220 + 97535 x221 + 93364 x222 + 106879 x223
       + 104386 x224 + 92827 x225 + 108964 x226 + 103908 x227 + 92428 x228
       + 105266 x229 + 108863 x230 + 108548 x231 + 94574 x232 + 102374 x233
       + 109494 x234 + 92516 x235 + 90784 x236 + 98042 x237 + 98436 x238
       + 109240 x239 + 99998 x240 + 95601 x241 + 90636 x242 + 101647 x243
       + 104191 x244 + 104527 x245 + 93628 x246 + 93616 x247 + 106385 x248
       + 96237 x249 + 92736 x250 + 101303 x251 + 101087 x252 + 98119 x253
       + 96885 x254 + 95356 x255 + 107299 x256 + 109832 x257 + 100837 x258
       + 102919 x259 + 94480 x260 + 90684 x261 + 92015 x262 + 99244 x263
       + 99808 x264 + 101365 x265 + 102169 x266 + 106726 x267 + 92118 x268
       + 94144 x269 + 97272 x270 + 97777 x271 + 99801 x272 + 104153 x273
       + 106996 x274 + 106711 x275 + 90755 x276 + 98408 x277 + 93769 x278
       + 100233 x279 + 103933 x280 + 108970 x281 + 90615 x282 + 96106 x283
       + 104024 x284 + 91949 x285 + 96878 x286 + 95255 x287 + 103558 x288
       + 95018 x289 + 91380 x290 + 103806 x291 + 109948 x292 + 102708 x293
       + 103713 x294 + 108463 x295 + 108966 x296 + 100925 x297 + 96083 x298
       + 91158 x299 + 151177 x300 + 219384 x301 + 186132 x302 + 192832 x303
       + 187071 x304 + 191644 x305 + 197410 x306 + 182808 x307 + 210430 x308
       + 193185 x309 + 181620 x310 + 212048 x311 + 214197 x312 + 195135 x313
       + 193441 x314 + 193052 x315 + 211057 x316 + 189011 x317 + 189565 x318
       + 201175 x319 + 203921 x320 + 200720 x321 + 180564 x322 + 197682 x323
       + 196811 x324 + 203803 x325 + 207108 x326 + 188341 x327 + 194807 x328
       + 203996 x329 + 213724 x330 + 182754 x331 + 214239 x332 + 184344 x333
       + 212695 x334 + 203711 x335 + 215586 x336 + 201151 x337 + 203868 x338
       + 203720 x339 + 216583 x340 + 185713 x341 + 183049 x342 + 197441 x343
       + 201831 x344 + 215297 x345 + 192322 x346 + 214136 x347 + 217748 x348
       + 209045 x349 + 180058 x350 + 213316 x351 + 187964 x352 + 180452 x353
       + 206540 x354 + 209648 x355 + 184345 x356 + 217801 x357 + 213022 x358
       + 199763 x359 + 219184 x360
Subject To
 c1:   - x3 + x7 - x10 + x12 - x13 + x27 + x28 - x29 - x44 - x47 - x48 + x53
        = 1
 c2:   - x63 + x67 - x70 + x72 - x73 + x87 + x88 - x89 - x104 - x107 - x108
       + x113  = 0
 c3:   - x123 + x127 - x130 + x132 - x133 + x147 + x148 - x149 - x164 - x167
       - x168 + x173  = 0
 c4:   - x183 + x187 - x190 + x192 - x193 + x207 + x208 - x209 - x224 - x227
       - x228 + x233  = 1
 c5:   - x243 + x247 - x250 + x252 - x253 + x267 + x268 - x269 - x284 - x287
       - x288 + x293  = 0
 c6:   x1 + x6 - x9 - x14 - x17 + x20 + x21 - x27 + x32 - x34 - x43 + x47 - x59
        = 0
 c7:   x61 + x66 - x69 - x74 - x77 + x80 + x81 - x87 + x92 - x94 - x103 + x107
       - x119  = 0
 c8:   x121 + x126 - x129 - x134 - x137 + x140 + x141 - x147 + x152 - x154
       - x163 + x167 - x179  = 0
 c9:   x181 + x186 - x189 - x194 - x197 + x200 + x201 - x207 + x212 - x214
       - x223 + x227 - x239  = 0
 c10:  x241 + x246 - x249 - x254 - x257 + x260 + x261 - x267 + x272 - x274
       - x283 + x287 - x299  = 0
 c11:  x2 - x11 + x13 - x19 - x25 - x33 - x41 + x52 - x53 + x54 + x56  = 0
 c12:  x62 - x71 + x73 - x79 - x85 - x93 - x101 + x112 - x113 + x114 + x116
        = 1
 c13:  x122 - x131 + x133 - x139 - x145 - x153 - x161 + x172 - x173 + x174
       + x176  = 0
 c14:  x182 - x191 + x193 - x199 - x205 - x213 - x221 + x232 - x233 + x234
       + x236  = -1
 c15:  x242 - x251 + x253 - x259 - x265 - x273 - x281 + x292 - x293 + x294
       + x296  = 0
 c16:  x3 + x5 + x14 - x16 + x33 - x39 - x49 - x50 + x51 - x56  = -1
 c17:  x63 + x65 + x74 - x76 + x93 - x99 - x109 - x110 + x111 - x116  = 0
 c18:  x123 + x125 + x134 - x136 + x153 - x159 - x169 - x170 + x171 - x176  = 0
 c19:  x183 + x185 + x194 - x196 + x213 - x219 - x229 - x230 + x231 - x236  = 0
 c20:  x243 + x245 + x254 - x256 + x273 - x279 - x289 - x290 + x291 - x296  = 0
 c21:  - x1 - x2 + x10 + x15 - x23 + x25 - x28 - x45 + x46 + x50 - x55 + x60
        = 0
 c22:  - x61 - x62 + x70 + x75 - x83 + x85 - x88 - x105 + x106 + x110 - x115
       + x120  = 0
 c23:  - x121 - x122 + x130 + x135 - x143 + x145 - x148 - x165 + x166 + x170
       - x175 + x180  = 1
 c24:  - x181 - x182 + x190 + x195 - x203 + x205 - x208 - x225 + x226 + x230
       - x235 + x240  = 0
 c25:  - x241 - x242 + x250 + x255 - x263 + x265 - x268 - x285 + x286 + x290
       - x295 + x300  = 0
 c26:  - x5 - x6 + x8 - x18 + x22 + x23 + x24 - x35 + x39 + x41 - x42 + x43
       - x58  = 0
 c27:  - x65 - x66 + x68 - x78 + x82 + x83 + x84 - x95 + x99 + x101 - x102
       + x103 - x118  = 0
 c28:  - x125 - x126 + x128 - x138 + x142 + x143 + x144 - x155 + x159 + x161
       - x162 + x163 - x178  = 0
 c29:  - x185 - x186 + x188 - x198 + x202 + x203 + x204 - x215 + x219 + x221
       - x222 + x223 - x238  = 0
 c30:  - x245 - x246 + x248 - x258 + x262 + x263 + x264 - x275 + x279 + x281
       - x282 + x283 - x298  = 0
 c31:  - x8 + x11 + x17 - x26 - x32 + x35 - x37 + x38 + x40 + x44 + x49 + x57
       - x60  = 0
 c32:  - x68 + x71 + x77 - x86 - x92 + x95 - x97 + x98 + x100 + x104 + x109
       + x117 - x120  = 0
 c33:  - x128 + x131 + x137 - x146 - x152 + x155 - x157 + x158 + x160 + x164
       + x169 + x177 - x180  = 0
 c34:  - x188 + x191 + x197 - x206 - x212 + x215 - x217 + x218 + x220 + x224
       + x229 + x237 - x240  = 0
 c35:  - x248 + x251 + x257 - x266 - x272 + x275 - x277 + x278 + x280 + x284
       + x289 + x297 - x300  = 1
 c36:  x4 + x18 - x21 - x24 + x29 + x30 + x34 - x40 - x46 - x52  = 0
 c37:  x64 + x78 - x81 - x84 + x89 + x90 + x94 - x100 - x106 - x112  = 0
 c38:  x124 + x138 - x141 - x144 + x149 + x150 + x154 - x160 - x166 - x172  = 0
 c39:  x184 + x198 - x201 - x204 + x209 + x210 + x214 - x220 - x226 - x232  = 0
 c40:  x244 + x258 - x261 - x264 + x269 + x270 + x274 - x280 - x286 - x292  = 0
 c41:  x9 - x12 - x15 - x22 + x26 - x30 - x31 + x36 - x38 + x42 + x48 - x51
       + x55  = 0
 c42:  x69 - x72 - x75 - x82 + x86 - x90 - x91 + x96 - x98 + x102 + x108 - x111
       + x115  = -1
 c43:  x129 - x132 - x135 - x142 + x146 - x150 - x151 + x156 - x158 + x162
       + x168 - x171 + x175  = 0
 c44:  x189 - x192 - x195 - x202 + x206 - x210 - x211 + x216 - x218 + x222
       + x228 - x231 + x235  = 0
 c45:  x249 - x252 - x255 - x262 + x266 - x270 - x271 + x276 - x278 + x282
       + x288 - x291 + x295  = 0
 c46:  - x4 - x7 + x16 + x19 - x20 + x31 - x36 + x37 + x45 - x54 - x57 + x58
       + x59  = 0
 c47:  - x64 - x67 + x76 + x79 - x80 + x91 - x96 + x97 + x105 - x114 - x117
       + x118 + x119  = 0
 c48:  - x124 - x127 + x136 + x139 - x140 + x151 - x156 + x157 + x165 - x174
       - x177 + x178 + x179  = -1
 c49:  - x184 - x187 + x196 + x199 - x200 + x211 - x216 + x217 + x225 - x234
       - x237 + x238 + x239  = 0
 c50:  - x244 - x247 + x256 + x259 - x260 + x271 - x276 + x277 + x285 - x294
       - x297 + x298 + x299  = -1
 c51:  4 x1 + 4 x61 + 4 x121 + 4 x181 + 4 x241 - 11 x301 <= 0
 c52:  4 x2 + 4 x62 + 4 x122 + 4 x182 + 4 x242 - 10 x302 <= 0
 c53:  4 x3 + 4 x63 + 4 x123 + 4 x183 + 4 x243 - 10 x303 <= 0
 c54:  4 x4 + 4 x64 + 4 x124 + 4 x184 + 4 x244 - 10 x304 <= 0
 c55:  4 x5 + 4 x65 + 4 x125 + 4 x185 + 4 x245 - 10 x305 <= 0
 c56:  4 x6 + 4 x66 + 4 x126 + 4 x186 + 4 x246 - 11 x306 <= 0
 c57:  4 x7 + 4 x67 + 4 x127 + 4 x187 + 4 x247 - 10 x307 <= 0
 c58:  4 x8 + 4 x68 + 4 x128 + 4 x188 + 4 x248 - 10 x308 <= 0
 c59:  4 x9 + 4 x69 + 4 x129 + 4 x189 + 4 x249 - 10 x309 <= 0
 c60:  4 x10 + 4 x70 + 4 x130 + 4 x190 + 4 x250 - 9 x310 <= 0
 c61:  4 x11 + 4 x71 + 4 x131 + 4 x191 + 4 x251 - 10 x311 <= 0
 c62:  4 x12 + 4 x72 + 4 x132 + 4 x192 + 4 x252 - 10 x312 <= 0
 c63:  4 x13 + 4 x73 + 4 x133 + 4 x193 + 4 x253 - 9 x313 <= 0
 c64:  4 x14 + 4 x74 + 4 x134 + 4 x194 + 4 x254 - 11 x314 <= 0
 c65:  4 x15 + 4 x75 + 4 x135 + 4 x195 + 4 x255 - 11 x315 <= 0
 c66:  4 x16 + 4 x76 + 4 x136 + 4 x196 + 4 x256 - 9 x316 <= 0
 c67:  4 x17 + 4 x77 + 4 x137 + 4 x197 + 4 x257 - 11 x317 <= 0
 c68:  4 x18 + 4 x78 + 4 x138 + 4 x198 + 4 x258 - 10 x318 <= 0
 c69:  4 x19 + 4 x79 + 4 x139 + 4 x199 + 4 x259 - 10 x319 <= 0
 c70:  4 x20 + 4 x80 + 4 x140 + 4 x200 + 4 x260 - 9 x320 <= 0
 c71:  4 x21 + 4 x81 + 4 x141 + 4 x201 + 4 x261 - 10 x321 <= 0
 c72:  4 x22 + 4 x82 + 4 x142 + 4 x202 + 4 x262 - 10 x322 <= 0
 c73:  4 x23 + 4 x83 + 4 x143 + 4 x203 + 4 x263 - 10 x323 <= 0
 c74:  4 x24 + 4 x84 + 4 x144 + 4 x204 + 4 x264 - 10 x324 <= 0
 c75:  4 x25 + 4 x85 + 4 x145 + 4 x205 + 4 x265 - 11 x325 <= 0
 c76:  4 x26 + 4 x86 + 4 x146 + 4 x206 + 4 x266 - 10 x326 <= 0
 c77:  4 x27 + 4 x87 + 4 x147 + 4 x207 + 4 x267 - 10 x327 <= 0
 c78:  4 x28 + 4 x88 + 4 x148 + 4 x208 + 4 x268 - 10 x328 <= 0
 c79:  4 x29 + 4 x89 + 4 x149 + 4 x209 + 4 x269 - 10 x329 <= 0
 c80:  4 x30 + 4 x90 + 4 x150 + 4 x210 + 4 x270 - 10 x330 <= 0
 c81:  4 x31 + 4 x91 + 4 x151 + 4 x211 + 4 x271 - 11 x331 <= 0
 c82:  4 x32 + 4 x92 + 4 x152 + 4 x212 + 4 x272 - 9 x332 <= 0
 c83:  4 x33 + 4 x93 + 4 x153 + 4 x213 + 4 x273 - 11 x333 <= 0
 c84:  4 x34 + 4 x94 + 4 x154 + 4 x214 + 4 x274 - 10 x334 <= 0
 c85:  4 x35 + 4 x95 + 4 x155 + 4 x215 + 4 x275 - 10 x335 <= 0
 c86:  4 x36 + 4 x96 + 4 x156 + 4 x216 + 4 x276 - 11 x336 <= 0
 c87:  4 x37 + 4 x97 + 4 x157 + 4 x217 + 4 x277 - 11 x337 <= 0
 c88:  4 x38 + 4 x98 + 4 x158 + 4 x218 + 4 x278 - 10 x338 <= 0
 c89:  4 x39 + 4 x99 + 4 x159 + 4 x219 + 4 x279 - 10 x339 <= 0
 c90:  4 x40 + 4 x100 + 4 x160 + 4 x220 + 4 x280 - 10 x340 <= 0
 c91:  4 x41 + 4 x101 + 4 x161 + 4 x221 + 4 x281 - 10 x341 <= 0
 c92:  4 x42 + 4 x102 + 4 x162 + 4 x222 + 4 x282 - 9 x342 <= 0
 c93:  4 x43 + 4 x103 + 4 x163 + 4 x223 + 4 x283 - 10 x343 <= 0
 c94:  4 x44 + 4 x104 + 4 x164 + 4 x224 + 4 x284 - 10 x344 <= 0
 c95:  4 x45 + 4 x105 + 4 x165 + 4 x225 + 4 x285 - 10 x345 <= 0
 c96:  4 x46 + 4 x106 + 4 x166 + 4 x226 + 4 x286 - 11 x346 <= 0
 c97:  4 x47 + 4 x107 + 4 x167 + 4 x227 + 4 x287 - 9 x347 <= 0
 c98:  4 x48 + 4 x108 + 4 x168 + 4 x228 + 4 x288 - 10 x348 <= 0
 c99:  4 x49 + 4 x109 + 4 x169 + 4 x229 + 4 x289 - 11 x349 <= 0
 c100: 4 x50 + 4 x110 + 4 x170 + 4 x230 + 4 x290 - 10 x350 <= 0
 c101: 4 x51 + 4 x111 + 4 x171 + 4 x231 + 4 x291 - 9 x351 <= 0
 c102: 4 x52 + 4 x112 + 4 x172 + 4 x232 + 4 x292 - 10 x352 <= 0
 c103: 4 x53 + 4 x113 + 4 x173 + 4 x233 + 4 x293 - 9 x353 <= 0
 c104: 4 x54 + 4 x114 + 4 x174 + 4 x234 + 4 x294 - 11 x354 <= 0
 c105: 4 x55 + 4 x115 + 4 x175 + 4 x235 + 4 x295 - 11 x355 <= 0
 c106: 4 x56 + 4 x116 + 4 x176 + 4 x236 + 4 x296 - 10 x356 <= 0
 c107: 4 x57 + 4 x117 + 4 x177 + 4 x237 + 4 x297 - 11 x357 <= 0
 c108: 4 x58 + 4 x118 + 4 x178 + 4 x238 + 4 x298 - 10 x358 <= 0
 c109: 4 x59 + 4 x119 + 4 x179 + 4 x239 + 4 x299 - 10 x359 <= 0
 c110: 4 x60 + 4 x120 + 4 x180 + 4 x240 + 4 x300 - 4 x360 <= 0
Bounds
 0 <= x1 <= 1
 0 <= x2 <= 1
 0 <= x3 <= 1
 0 <= x4 <= 1
 0 <= x5 <= 1
 0 <= x6 <= 1
 0 <= x7 <= 1
 0 <= x8 <= 1
 0 <= x9 <= 1
 0 <= x10 <= 1
 0 <= x11 <= 1
 0 <= x12 <= 1
 0 <= x13 <= 1
 0 <= x14 <= 1
 0 <= x15 <= 1
 0 <= x16 <= 1
 0 <= x17 <= 1
 0 <= x18 <= 1
 0 <= x19 <= 1
 0 <= x20 <= 1
 0 <= x21 <= 1
 0 <= x22 <= 1
 0 <= x23 <= 1
 0 <= x24 <= 1
 0 <= x25 <= 1
 0 <= x26 <= 1
 0 <= x27 <= 1
 0 <= x28 <= 1
 0 <= x29 <= 1
 0 <= x30 <= 1
 0 <= x31 <= 1
 0 <= x32 <= 1
 0 <= x33 <= 1
 0 <= x34 <= 1
 0 <= x35 <= 1
 0 <= x36 <= 1
 0 <= x37 <= 1
 0 <= x38 <= 1
 0 <= x39 <= 1
 0 <= x40 <= 1
 0 <= x41 <= 1
 0 <= x42 <= 1
 0 <= x43 <= 1
 0 <= x44 <= 1
 0 <= x45 <= 1
 0 <= x46 <= 1
 0 <= x47 <= 1
 0 <= x48 <= 1
 0 <= x49 <= 1
 0 <= x50 <= 1
 0 <= x51 <= 1
 0 <= x52 <= 1
 0 <= x53 <= 1
 0 <= x54 <= 1
 0 <= x55 <= 1
 0 <= x56 <= 1
 0 <= x57 <= 1
 0 <= x58 <= 1
 0 <= x59 <= 1
 0 <= x60 <= 1
 0 <= x61 <= 1
 0 <= x62 <= 1
 0 <= x63 <= 1
 0 <= x64 <= 1
 0 <= x65 <= 1
 0 <= x66 <= 1
 0 <= x67 <= 1
 0 <= x68 <= 1
 0 <= x69 <= 1
 0 <= x70 <= 1
 0 <= x71 <= 1
 0 <= x72 <= 1
 0 <= x73 <= 1
 0 <= x74 <= 1
 0 <= x75 <= 1
 0 <= x76 <= 1
 0 <= x77 <= 1
 0 <= x78 <= 1
 0 <= x79 <= 1
 0 <= x80 <= 1
 0 <= x81 <= 1
 0 <= x82 <= 1
 0 <= x83 <= 1
 0 <= x84 <= 1
 0 <= x85 <= 1
 0 <= x86 <= 1
 0 <= x87 <= 1
 0 <= x88 <= 1
 0 <= x89 <= 1
 0 <= x90 <= 1
 0 <= x91 <= 1
 0 <= x92 <= 1
 0 <= x93 <= 1
 0 <= x94 <= 1
 0 <= x95 <= 1
 0 <= x96 <= 1
 0 <= x97 <= 1
 0 <= x98 <= 1
 0 <= x99 <= 1
 0 <= x100 <= 1
 0 <= x101 <= 1
 0 <= x102 <= 1
 0 <= x103 <= 1
 0 <= x104 <= 1
 0 <= x105 <= 1
 0 <= x106 <= 1
 0 <= x107 <= 1
 0 <= x108 <= 1
 0 <= x109 <= 1
 0 <= x110 <= 1
 0 <= x111 <= 1
 0 <= x112 <= 1
 0 <= x113 <= 1
 0 <= x114 <= 1
 0 <= x115 <= 1
 0 <= x116 <= 1
 0 <= x117 <= 1
 0 <= x118 <= 1
 0 <= x119 <= 1
 0 <= x120 <= 1
 0 <= x121 <= 1
 0 <= x122 <= 1
 0 <= x123 <= 1
 0 <= x124 <= 1
 0 <= x125 <= 1
 0 <= x126 <= 1
 0 <= x127 <= 1
 0 <= x128 <= 1
 0 <= x129 <= 1
 0 <= x130 <= 1
 0 <= x131 <= 1
 0 <= x132 <= 1
 0 <= x133 <= 1
 0 <= x134 <= 1
 0 <= x135 <= 1
 0 <= x136 <= 1
 0 <= x137 <= 1
 0 <= x138 <= 1
 0 <= x139 <= 1
 0 <= x140 <= 1
 0 <= x141 <= 1
 0 <= x142 <= 1
 0 <= x143 <= 1
 0 <= x144 <= 1
 0 <= x145 <= 1
 0 <= x146 <= 1
 0 <= x147 <= 1
 0 <= x148 <= 1
 0 <= x149 <= 1
 0 <= x150 <= 1
 0 <= x151 <= 1
 0 <= x152 <= 1
 0 <= x153 <= 1
 0 <= x154 <= 1
 0 <= x155 <= 1
 0 <= x156 <= 1
 0 <= x157 <= 1
 0 <= x158 <= 1
 0 <= x159 <= 1
 0 <= x160 <= 1
 0 <= x161 <= 1
 0 <= x162 <= 1
 0 <= x163 <= 1
 0 <= x164 <= 1
 0 <= x165 <= 1
 0 <= x166 <= 1
 0 <= x167 <= 1
 0 <= x168 <= 1
 0 <= x169 <= 1
 0 <= x170 <= 1
 0 <= x171 <= 1
 0 <= x172 <= 1
 0 <= x173 <= 1
 0 <= x174 <= 1
 0 <= x175 <= 1
 0 <= x176 <= 1
 0 <= x177 <= 1
 0 <= x178 <= 1
 0 <= x179 <= 1
 0 <= x180 <= 1
 0 <= x181 <= 1
 0 <= x182 <= 1
 0 <= x183 <= 1
 0 <= x184 <= 1
 0 <= x185 <= 1
 0 <= x186 <= 1
 0 <= x187 <= 1
 0 <= x188 <= 1
 0 <= x189 <= 1
 0 <= x190 <= 1
 0 <= x191 <= 1
 0 <= x192 <= 1
 0 <= x193 <= 1
 0 <= x194 <= 1
 0 <= x195 <= 1
 0 <= x196 <= 1
 0 <= x197 <= 1
 0 <= x198 <= 1
 0 <= x199 <= 1
 0 <= x200 <= 1
 0 <= x201 <= 1
 0 <= x202 <= 1
 0 <= x203 <= 1
 0 <= x204 <= 1
 0 <= x205 <= 1
 0 <= x206 <= 1
 0 <= x207 <= 1
 0 <= x208 <= 1
 0 <= x209 <= 1
 0 <= x210 <= 1
 0 <= x211 <= 1
 0 <= x212 <= 1
 0 <= x213 <= 1
 0 <= x214 <= 1
 0 <= x215 <= 1
 0 <= x216 <= 1
 0 <= x217 <= 1
 0 <= x218 <= 1
 0 <= x219 <= 1
 0 <= x220 <= 1
 0 <= x221 <= 1
 0 <= x222 <= 1
 0 <= x223 <= 1
 0 <= x224 <= 1
 0 <= x225 <= 1
 0 <= x226 <= 1
 0 <= x227 <= 1
 0 <= x228 <= 1
 0 <= x229 <= 1
 0 <= x230 <= 1
 0 <= x231 <= 1
 0 <= x232 <= 1
 0 <= x233 <= 1
 0 <= x234 <= 1
 0 <= x235 <= 1
 0 <= x236 <= 1
 0 <= x237 <= 1
 0 <= x238 <= 1
 0 <= x239 <= 1
 0 <= x240 <= 1
 0 <= x241 <= 1
 0 <= x242 <= 1
 0 <= x243 <= 1
 0 <= x244 <= 1
 0 <= x245 <= 1
 0 <= x246 <= 1
 0 <= x247 <= 1
 0 <= x248 <= 1
 0 <= x249 <= 1
 0 <= x250 <= 1
 0 <= x251 <= 1
 0 <= x252 <= 1
 0 <= x253 <= 1
 0 <= x254 <= 1
 0 <= x255 <= 1
 0 <= x256 <= 1
 0 <= x257 <= 1
 0 <= x258 <= 1
 0 <= x259 <= 1
 0 <= x260 <= 1
 0 <= x261 <= 1
 0 <= x262 <= 1
 0 <= x263 <= 1
 0 <= x264 <= 1
 0 <= x265 <= 1
 0 <= x266 <= 1
 0 <= x267 <= 1
 0 <= x268 <= 1
 0 <= x269 <= 1
 0 <= x270 <= 1
 0 <= x271 <= 1
 0 <= x272 <= 1
 0 <= x273 <= 1
 0 <= x274 <= 1
 0 <= x275 <= 1
 0 <= x276 <= 1
 0 <= x277 <= 1
 0 <= x278 <= 1
 0 <= x279 <= 1
 0 <= x280 <= 1
 0 <= x281 <= 1
 0 <= x282 <= 1
 0 <= x283 <= 1
 0 <= x284 <= 1
 0 <= x285 <= 1
 0 <= x286 <= 1
 0 <= x287 <= 1
 0 <= x288 <= 1
 0 <= x289 <= 1
 0 <= x290 <= 1
 0 <= x291 <= 1
 0 <= x292 <= 1
 0 <= x293 <= 1
 0 <= x294 <= 1
 0 <= x295 <= 1
 0 <= x296 <= 1
 0 <= x297 <= 1
 0 <= x298 <= 1
 0 <= x299 <= 1
 0 <= x300 <= 1
 0 <= x301 <= 1
 0 <= x302 <= 1
 0 <= x303 <= 1
 0 <= x304 <= 1
 0 <= x305 <= 1
 0 <= x306 <= 1
 0 <= x307 <= 1
 0 <= x308 <= 1
 0 <= x309 <= 1
 0 <= x310 <= 1
 0 <= x311 <= 1
 0 <= x312 <= 1
 0 <= x313 <= 1
 0 <= x314 <= 1
 0 <= x315 <= 1
 0 <= x316 <= 1
 0 <= x317 <= 1
 0 <= x318 <= 1
 0 <= x319 <= 1
 0 <= x320 <= 1
 0 <= x321 <= 1
 0 <= x322 <= 1
 0 <= x323 <= 1
 0 <= x324 <= 1
 0 <= x325 <= 1
 0 <= x326 <= 1
 0 <= x327 <= 1
 0 <= x328 <= 1
 0 <= x329 <= 1
 0 <= x330 <= 1
 0 <= x331 <= 1
 0 <= x332 <= 1
 0 <= x333 <= 1
 0 <= x334 <= 1
 0 <= x335 <= 1
 0 <= x336 <= 1
 0 <= x337 <= 1
 0 <= x338 <= 1
 0 <= x339 <= 1
 0 <= x340 <= 1
 0 <= x341 <= 1
 0 <= x342 <= 1
 0 <= x343 <= 1
 0 <= x344 <= 1
 0 <= x345 <= 1
 0 <= x346 <= 1
 0 <= x347 <= 1
 0 <= x348 <= 1
 0 <= x349 <= 1
 0 <= x350 <= 1
 0 <= x351 <= 1
 0 <= x352 <= 1
 0 <= x353 <= 1
 0 <= x354 <= 1
 0 <= x355 <= 1
 0 <= x356 <= 1
 0 <= x357 <= 1
 0 <= x358 <= 1
 0 <= x359 <= 1
 0 <= x360 <= 1
Binaries
 x301  x302  x303  x304  x305  x306  x307  x308  x309  x310  x311  x312  x313 
 x314  x315  x316  x317  x318  x319  x320  x321  x322  x323  x324  x325  x326 
 x327  x328  x329  x330  x331  x332  x333  x334  x335  x336  x337  x338  x339 
 x340  x341  x342  x343  x344  x345  x346  x347  x348  x349  x350  x351  x352 
 x353  x354  x355  x356  x357  x358  x359  x360 
End
